proyfinal/src/viki/013/andrea/andrea-localstore/experimentInOfficeAgust.take6/worker_6/cc61d358-1d23-45b1-bc86-84be2309b06c.als.cnf.out
Reading from standard input... Use '--help' for help.
============================[ Problem Statistics ]=============================
|                                                                             |
|  Number of variables:         87638                                         |
|  Number of clauses:          161767                                         |
|  Parse time:                   0.03 s                                       |
|                                                                             |
============================[ Search Statistics ]==============================
| Conflicts |          ORIGINAL         |          LEARNT          | Progress |
|           |    Vars  Clauses Literals |    Limit  Clauses Lit/Cl |          |
===============================================================================
|       100 |   63897   110615   276420 |    40558      100     24 | 27.090 % |
|       250 |   63897   110615   276420 |    44614      250     48 | 27.090 % |
|       475 |   63897   110615   276420 |    49076      475     39 | 27.090 % |
|       812 |   53619    80266   201719 |    53983      775     35 | 38.818 % |
|      1318 |   53606    80210   201589 |    59382     1279     41 | 38.832 % |
|      2077 |   53558    80047   201157 |    65320     2036     45 | 38.887 % |
|      3216 |   53411    79921   200857 |    71852     3172     61 | 39.055 % |
|      4924 |   53411    79529   199897 |    79037     4873     68 | 39.055 % |
|      7486 |   53297    79277   199315 |    86941     7421     82 | 39.185 % |
|     11330 |   53187    78689   197928 |    95635     7433     70 | 39.311 % |
|     17096 |   53143    78291   196990 |   105199    13162     73 | 39.361 % |
===============================================================================
restarts              : 80
conflicts             : 22587          (6622 /sec)
decisions             : 78703          (0.00 % random) (23073 /sec)
propagations          : 36573487       (10722174 /sec)
conflict literals     : 1695457        (47.05 % deleted)
Memory used           : 31.83 MB
CPU time              : 3.41101 s

INDETERMINATE
